=1
=2
=0IBM ILOG CPLEX   42.1.0 cb854401 Feb 1, 2023           LEG x86 64bit/Linux    
=1
--- GAMS/Cplex licensed for continuous and discrete problems.
=2
=C
=1
=CReading parameter(s) from "/storage/home/ejm6426/scratch/scRBA/parameterization/kapp/datasets/Yu2021_chemoClimNH4_010_using_rtRBA_methods/min_flux_violation/cplex.opt"
=C>>  optcr = 1E-12
=C>>  optca = 1E-12
=C>>  eprhs = 1E-9
=C>> 
=CFinished reading from "/storage/home/ejm6426/scratch/scRBA/parameterization/kapp/datasets/Yu2021_chemoClimNH4_010_using_rtRBA_methods/min_flux_violation/cplex.opt"
=2
=C
=1
--- GMO setup time: 0.00s
=2
=1
--- Space for names approximately 0.47 Mb
=2
=1
--- Use option 'names no' to turn use of names off
=2
=1
--- GMO memory 5.73 Mb (peak 5.81 Mb)
=2
=1
--- Dictionary memory 0.00 Mb
=2
=1
--- Cplex 22.1.1.0 link memory 0.25 Mb (peak 1.89 Mb)
=2
=1
--- Starting Cplex
=2
=C
Version identifier: 22.1.1.0 | 2022-11-28 | 9160aff4d
CPXPARAM_Advance                                 0
CPXPARAM_Threads                                 1
CPXPARAM_MIP_Display                             4
CPXPARAM_MIP_Pool_Capacity                       0
CPXPARAM_Simplex_Limits_Iterations               1000000
CPXPARAM_Simplex_Tolerances_Feasibility          1.0000000000000001e-09
CPXPARAM_TimeLimit                               1000
CPXPARAM_MIP_Tolerances_AbsMIPGap                9.9999999999999998e-13
CPXPARAM_MIP_Tolerances_MIPGap                   9.9999999999999998e-13
Tried aggregator 1 time.
LP Presolve eliminated 2363 rows and 6831 columns.
Aggregator did 621 substitutions.
Reduced LP has 1236 rows, 3230 columns, and 40013 nonzeros.
Presolve time = 0.03 sec. (22.46 ticks)

Iteration log . . .
Iteration:     1   Dual objective     =             0.000000
Perturbation started.
Iteration:   101   Dual objective     =             0.000000
Iteration:   220   Dual objective     =             8.060604
Iteration:   299   Dual objective     =            10.371641
Iteration:   376   Dual objective     =            10.947370
Iteration:   476   Dual objective     =            10.948041
Iteration:   589   Dual objective     =            10.948516
Iteration:   720   Dual objective     =            10.948626
Iteration:   798   Dual objective     =            34.762095
Removing perturbation.
Iteration:   816   Dual objective     = -237941741907092.750000
Iteration:   996   Dual objective     =   -1031791266.215169
Iteration:  1135   Dual objective     =         -3241.624268
Iteration:  1265   Dual objective     =         -3079.511061
Iteration:  1395   Dual objective     =         -2949.929278
Iteration:  1531   Dual objective     =         -2801.229755
Iteration:  1670   Dual objective     =         -2201.581793
Iteration:  1838   Dual objective     =           597.677669
Iteration:  1904   Dual objective     =           749.189293
Removing shift (632).
=C
=1
--- LP status (3): infeasible.
=2
=1
--- Cplex Time: 0.40sec (det. 192.88 ticks)

=2
=C
=CModel has been proven infeasible
=C
